c "805889.clq"
p edge 100 1344
e 1 17
e 1 18
e 1 19
e 1 20
e 1 22
e 1 26
e 1 28
e 1 30
e 1 32
e 1 34
e 1 35
e 1 38
e 1 41
e 1 50
e 1 52
e 1 54
e 1 63
e 1 65
e 1 66
e 1 71
e 1 79
e 1 86
e 1 93
e 1 95
e 1 97
e 2 17
e 2 18
e 2 20
e 2 21
e 2 24
e 2 25
e 2 27
e 2 28
e 2 29
e 2 30
e 2 31
e 2 35
e 2 36
e 2 38
e 2 44
e 2 47
e 2 48
e 2 55
e 2 63
e 2 66
e 2 70
e 2 71
e 2 72
e 2 78
e 2 87
e 2 96
e 3 17
e 3 18
e 3 19
e 3 21
e 3 22
e 3 25
e 3 28
e 3 40
e 3 46
e 3 63
e 3 66
e 3 69
e 3 74
e 3 85
e 4 17
e 4 18
e 4 19
e 4 20
e 4 21
e 4 22
e 4 23
e 4 25
e 4 26
e 4 27
e 4 28
e 4 29
e 4 30
e 4 32
e 4 33
e 4 40
e 4 41
e 4 44
e 4 48
e 4 50
e 4 55
e 4 73
e 4 89
e 4 100
e 5 17
e 5 18
e 5 19
e 5 21
e 5 22
e 5 23
e 5 24
e 5 25
e 5 26
e 5 28
e 5 29
e 5 31
e 5 32
e 5 33
e 5 34
e 5 35
e 5 36
e 5 38
e 5 40
e 5 41
e 5 46
e 5 49
e 5 51
e 5 55
e 5 57
e 5 65
e 5 68
e 5 75
e 5 86
e 5 88
e 5 89
e 5 91
e 6 17
e 6 18
e 6 19
e 6 20
e 6 21
e 6 24
e 6 27
e 6 31
e 6 37
e 6 38
e 6 43
e 6 46
e 6 52
e 6 54
e 6 60
e 6 64
e 6 66
e 6 74
e 6 75
e 6 76
e 6 82
e 6 91
e 6 92
e 6 93
e 6 95
e 7 17
e 7 19
e 7 20
e 7 21
e 7 22
e 7 24
e 7 38
e 7 47
e 7 50
e 7 57
e 7 60
e 7 80
e 8 17
e 8 18
e 8 19
e 8 20
e 8 21
e 8 22
e 8 23
e 8 26
e 8 27
e 8 38
e 8 39
e 8 42
e 8 43
e 8 47
e 8 56
e 8 63
e 8 73
e 8 74
e 8 75
e 8 76
e 8 77
e 8 79
e 8 81
e 8 82
e 8 83
e 8 85
e 8 86
e 8 87
e 8 91
e 8 99
e 9 17
e 9 18
e 9 19
e 9 20
e 9 21
e 9 23
e 9 29
e 9 31
e 9 32
e 9 33
e 9 38
e 9 39
e 9 41
e 9 43
e 9 46
e 9 48
e 9 51
e 9 54
e 9 64
e 9 71
e 9 76
e 9 86
e 9 87
e 9 88
e 9 90
e 9 94
e 9 95
e 9 96
e 10 17
e 10 18
e 10 20
e 10 21
e 10 22
e 10 23
e 10 24
e 10 25
e 10 26
e 10 27
e 10 30
e 10 33
e 10 37
e 10 40
e 10 46
e 10 47
e 10 49
e 10 51
e 10 53
e 10 59
e 10 64
e 10 66
e 10 67
e 10 68
e 10 73
e 10 84
e 10 88
e 10 93
e 10 98
e 11 17
e 11 18
e 11 19
e 11 20
e 11 21
e 11 22
e 11 23
e 11 24
e 11 28
e 11 29
e 11 33
e 11 34
e 11 37
e 11 41
e 11 42
e 11 44
e 11 50
e 11 53
e 11 57
e 11 65
e 11 69
e 11 79
e 11 93
e 11 94
e 11 100
e 12 17
e 12 18
e 12 19
e 12 22
e 12 25
e 12 26
e 12 27
e 12 57
e 12 67
e 12 71
e 12 84
e 12 98
e 13 17
e 13 18
e 13 19
e 13 20
e 13 23
e 13 24
e 13 25
e 13 26
e 13 28
e 13 29
e 13 30
e 13 31
e 13 34
e 13 36
e 13 37
e 13 38
e 13 39
e 13 41
e 13 46
e 13 63
e 13 70
e 13 80
e 13 87
e 13 95
e 13 96
e 14 17
e 14 18
e 14 19
e 14 20
e 14 22
e 14 23
e 14 24
e 14 25
e 14 26
e 14 27
e 14 29
e 14 30
e 14 32
e 14 37
e 14 38
e 14 42
e 14 48
e 14 49
e 14 54
e 14 59
e 14 62
e 14 63
e 14 68
e 14 72
e 14 76
e 14 89
e 14 99
e 14 100
e 15 17
e 15 18
e 15 19
e 15 20
e 15 21
e 15 22
e 15 23
e 15 26
e 15 31
e 15 33
e 15 34
e 15 35
e 15 36
e 15 37
e 15 45
e 15 46
e 15 48
e 15 52
e 15 58
e 15 62
e 15 64
e 15 65
e 15 67
e 15 71
e 15 80
e 15 82
e 15 92
e 15 95
e 15 96
e 16 17
e 16 18
e 16 19
e 16 20
e 16 21
e 16 23
e 16 24
e 16 25
e 16 30
e 16 32
e 16 33
e 16 35
e 16 36
e 16 38
e 16 47
e 16 48
e 16 51
e 16 52
e 16 61
e 16 68
e 16 71
e 16 76
e 16 77
e 16 80
e 16 100
e 17 18
e 17 19
e 17 20
e 17 21
e 17 22
e 17 23
e 17 24
e 17 25
e 17 26
e 17 27
e 17 28
e 17 29
e 17 30
e 17 31
e 17 33
e 17 34
e 17 35
e 17 36
e 17 39
e 17 40
e 17 41
e 17 42
e 17 43
e 17 45
e 17 50
e 17 53
e 17 56
e 17 59
e 17 60
e 17 61
e 17 62
e 17 66
e 17 73
e 17 74
e 17 75
e 17 78
e 17 85
e 17 88
e 17 89
e 17 90
e 17 91
e 18 19
e 18 20
e 18 21
e 18 22
e 18 23
e 18 24
e 18 27
e 18 29
e 18 30
e 18 31
e 18 32
e 18 34
e 18 35
e 18 36
e 18 37
e 18 40
e 18 41
e 18 43
e 18 45
e 18 46
e 18 50
e 18 52
e 18 53
e 18 55
e 18 56
e 18 57
e 18 64
e 18 65
e 18 70
e 18 71
e 18 72
e 18 74
e 18 76
e 18 77
e 18 79
e 18 81
e 18 92
e 19 20
e 19 21
e 19 22
e 19 23
e 19 24
e 19 25
e 19 26
e 19 27
e 19 28
e 19 31
e 19 32
e 19 33
e 19 34
e 19 36
e 19 38
e 19 39
e 19 42
e 19 45
e 19 50
e 19 51
e 19 52
e 19 54
e 19 57
e 19 62
e 19 64
e 19 66
e 19 69
e 19 70
e 19 74
e 19 77
e 19 78
e 19 83
e 19 84
e 19 87
e 19 96
e 19 97
e 20 21
e 20 22
e 20 23
e 20 24
e 20 25
e 20 26
e 20 27
e 20 28
e 20 29
e 20 31
e 20 32
e 20 33
e 20 35
e 20 36
e 20 38
e 20 39
e 20 41
e 20 42
e 20 45
e 20 47
e 20 51
e 20 52
e 20 59
e 20 64
e 20 65
e 20 69
e 20 70
e 20 72
e 20 74
e 20 77
e 20 80
e 20 86
e 20 89
e 20 90
e 20 93
e 21 22
e 21 23
e 21 24
e 21 25
e 21 26
e 21 27
e 21 28
e 21 29
e 21 30
e 21 32
e 21 35
e 21 36
e 21 37
e 21 39
e 21 40
e 21 44
e 21 45
e 21 46
e 21 49
e 21 50
e 21 53
e 21 55
e 21 56
e 21 57
e 21 59
e 21 61
e 21 62
e 21 67
e 21 68
e 21 71
e 21 75
e 21 76
e 21 80
e 21 81
e 21 82
e 21 85
e 21 90
e 21 93
e 21 94
e 21 96
e 21 98
e 21 99
e 22 23
e 22 24
e 22 25
e 22 26
e 22 27
e 22 28
e 22 29
e 22 30
e 22 31
e 22 33
e 22 36
e 22 39
e 22 40
e 22 41
e 22 42
e 22 48
e 22 51
e 22 52
e 22 53
e 22 59
e 22 62
e 22 63
e 22 72
e 22 77
e 22 79
e 22 80
e 22 86
e 22 87
e 22 91
e 22 93
e 22 95
e 22 98
e 22 99
e 23 24
e 23 25
e 23 28
e 23 29
e 23 31
e 23 32
e 23 33
e 23 34
e 23 36
e 23 37
e 23 39
e 23 41
e 23 42
e 23 43
e 23 44
e 23 45
e 23 46
e 23 48
e 23 51
e 23 53
e 23 56
e 23 57
e 23 58
e 23 60
e 23 61
e 23 63
e 23 64
e 23 65
e 23 70
e 23 71
e 23 73
e 23 74
e 23 83
e 23 84
e 23 88
e 23 93
e 23 95
e 23 96
e 23 99
e 24 25
e 24 26
e 24 27
e 24 28
e 24 29
e 24 30
e 24 31
e 24 32
e 24 33
e 24 34
e 24 35
e 24 36
e 24 37
e 24 38
e 24 39
e 24 41
e 24 43
e 24 44
e 24 45
e 24 48
e 24 49
e 24 54
e 24 58
e 24 66
e 24 67
e 24 69
e 24 70
e 24 71
e 24 76
e 24 78
e 24 79
e 24 82
e 24 86
e 24 89
e 24 91
e 24 97
e 25 26
e 25 27
e 25 28
e 25 29
e 25 30
e 25 34
e 25 37
e 25 42
e 25 45
e 25 51
e 25 52
e 25 56
e 25 61
e 25 63
e 25 65
e 25 69
e 25 72
e 25 77
e 25 83
e 25 88
e 25 97
e 26 27
e 26 29
e 26 30
e 26 31
e 26 32
e 26 33
e 26 35
e 26 40
e 26 41
e 26 42
e 26 43
e 26 46
e 26 47
e 26 49
e 26 51
e 26 52
e 26 54
e 26 59
e 26 60
e 26 64
e 26 66
e 26 70
e 26 81
e 26 86
e 26 88
e 26 95
e 27 28
e 27 31
e 27 32
e 27 33
e 27 34
e 27 38
e 27 39
e 27 40
e 27 42
e 27 44
e 27 45
e 27 48
e 27 49
e 27 50
e 27 54
e 27 56
e 27 58
e 27 59
e 27 60
e 27 61
e 27 62
e 27 68
e 27 71
e 27 72
e 27 73
e 27 75
e 27 78
e 27 79
e 27 80
e 27 81
e 27 84
e 27 94
e 27 95
e 27 98
e 28 30
e 28 32
e 28 34
e 28 35
e 28 43
e 28 44
e 28 49
e 28 53
e 28 54
e 28 55
e 28 57
e 28 62
e 28 65
e 28 67
e 28 74
e 28 83
e 28 88
e 28 91
e 28 94
e 28 95
e 29 30
e 29 36
e 29 38
e 29 39
e 29 42
e 29 45
e 29 46
e 29 50
e 29 54
e 29 61
e 29 65
e 29 67
e 29 68
e 29 75
e 29 77
e 29 89
e 30 31
e 30 32
e 30 33
e 30 34
e 30 35
e 30 36
e 30 39
e 30 40
e 30 42
e 30 43
e 30 44
e 30 47
e 30 52
e 30 55
e 30 56
e 30 59
e 30 61
e 30 66
e 30 69
e 30 70
e 30 72
e 30 74
e 30 81
e 30 82
e 30 90
e 30 92
e 30 94
e 30 98
e 31 34
e 31 35
e 31 37
e 31 38
e 31 39
e 31 40
e 31 45
e 31 46
e 31 49
e 31 51
e 31 53
e 31 58
e 31 66
e 31 67
e 31 70
e 31 82
e 31 86
e 31 90
e 31 99
e 31 100
e 32 34
e 32 35
e 32 36
e 32 39
e 32 40
e 32 43
e 32 44
e 32 47
e 32 48
e 32 50
e 32 53
e 32 55
e 32 56
e 32 57
e 32 58
e 32 59
e 32 61
e 32 63
e 32 64
e 32 68
e 32 69
e 32 70
e 32 74
e 32 78
e 32 83
e 32 85
e 32 89
e 32 96
e 32 98
e 33 35
e 33 37
e 33 41
e 33 43
e 33 49
e 33 51
e 33 54
e 33 58
e 33 60
e 33 68
e 33 83
e 33 92
e 33 94
e 34 37
e 34 40
e 34 41
e 34 45
e 34 47
e 34 50
e 34 51
e 34 56
e 34 58
e 34 59
e 34 60
e 34 61
e 34 63
e 34 66
e 34 68
e 34 71
e 34 74
e 34 75
e 34 78
e 34 82
e 34 83
e 34 85
e 34 86
e 34 90
e 34 92
e 34 100
e 35 37
e 35 39
e 35 43
e 35 44
e 35 45
e 35 46
e 35 48
e 35 53
e 35 55
e 35 56
e 35 57
e 35 60
e 35 61
e 35 67
e 35 75
e 35 81
e 35 84
e 35 87
e 35 100
e 36 37
e 36 40
e 36 44
e 36 45
e 36 49
e 36 56
e 36 58
e 36 60
e 36 64
e 36 70
e 36 72
e 36 75
e 36 82
e 36 86
e 36 87
e 36 96
e 36 98
e 37 41
e 37 42
e 37 44
e 37 47
e 37 49
e 37 50
e 37 51
e 37 53
e 37 55
e 37 56
e 37 57
e 37 64
e 37 65
e 37 66
e 37 67
e 37 68
e 37 69
e 37 75
e 37 77
e 37 79
e 37 81
e 37 85
e 37 91
e 37 92
e 37 93
e 37 97
e 38 42
e 38 44
e 38 45
e 38 48
e 38 56
e 38 58
e 38 61
e 38 62
e 38 71
e 38 72
e 38 77
e 38 83
e 38 87
e 38 91
e 38 94
e 38 96
e 39 40
e 39 43
e 39 50
e 39 53
e 39 54
e 39 55
e 39 57
e 39 59
e 39 68
e 39 69
e 39 91
e 39 92
e 40 43
e 40 47
e 40 54
e 40 60
e 40 64
e 40 73
e 40 80
e 40 84
e 40 87
e 40 98
e 41 42
e 41 43
e 41 44
e 41 47
e 41 59
e 41 62
e 41 64
e 41 65
e 41 78
e 41 85
e 41 91
e 41 99
e 41 100
e 42 47
e 42 60
e 42 66
e 42 73
e 42 78
e 42 79
e 42 98
e 42 99
e 43 44
e 43 47
e 43 48
e 43 49
e 43 51
e 43 53
e 43 55
e 43 56
e 43 58
e 43 77
e 43 88
e 44 46
e 44 47
e 44 50
e 44 51
e 44 55
e 44 57
e 44 58
e 44 63
e 44 65
e 44 67
e 44 70
e 44 76
e 44 80
e 44 81
e 44 82
e 44 84
e 44 89
e 44 90
e 44 92
e 45 46
e 45 48
e 45 49
e 45 50
e 45 52
e 45 59
e 45 60
e 45 63
e 45 73
e 45 75
e 45 80
e 45 84
e 45 85
e 45 86
e 45 87
e 45 88
e 45 92
e 45 97
e 46 49
e 46 55
e 46 58
e 46 62
e 46 64
e 46 68
e 46 69
e 46 71
e 46 72
e 46 75
e 46 78
e 46 81
e 46 83
e 47 48
e 47 49
e 47 52
e 47 69
e 47 76
e 47 82
e 47 84
e 47 88
e 47 100
e 48 52
e 48 53
e 48 54
e 48 57
e 48 62
e 48 68
e 48 71
e 48 74
e 48 77
e 48 81
e 48 82
e 48 83
e 48 97
e 49 52
e 49 54
e 49 61
e 49 62
e 49 66
e 49 71
e 49 72
e 49 75
e 49 84
e 49 89
e 49 93
e 49 98
e 50 85
e 50 93
e 51 52
e 51 53
e 51 67
e 51 69
e 51 81
e 51 82
e 51 86
e 51 96
e 51 98
e 52 55
e 52 67
e 52 72
e 52 79
e 52 87
e 52 91
e 53 54
e 53 55
e 53 58
e 53 59
e 53 60
e 53 72
e 53 76
e 53 77
e 53 93
e 53 95
e 53 100
e 54 56
e 54 65
e 54 70
e 54 77
e 54 81
e 54 90
e 54 91
e 54 92
e 54 94
e 54 95
e 55 57
e 55 58
e 55 60
e 55 69
e 55 77
e 55 81
e 55 86
e 56 58
e 56 65
e 56 68
e 56 73
e 56 78
e 56 79
e 56 85
e 56 95
e 57 60
e 57 67
e 57 73
e 57 99
e 57 100
e 58 59
e 58 61
e 58 62
e 58 63
e 58 67
e 58 72
e 58 74
e 58 78
e 58 89
e 58 90
e 58 91
e 58 94
e 58 98
e 59 61
e 59 65
e 59 76
e 59 78
e 59 82
e 59 84
e 60 61
e 60 62
e 60 67
e 60 73
e 60 76
e 60 80
e 60 82
e 60 85
e 60 88
e 60 94
e 60 98
e 61 62
e 61 63
e 61 72
e 61 78
e 61 83
e 61 89
e 61 90
e 61 97
e 62 63
e 62 64
e 62 66
e 62 70
e 62 87
e 62 94
e 63 73
e 63 79
e 63 88
e 63 92
e 63 93
e 63 98
e 64 69
e 64 70
e 64 76
e 64 77
e 64 79
e 64 83
e 64 85
e 64 100
e 65 68
e 65 69
e 65 80
e 65 81
e 65 84
e 65 85
e 65 87
e 65 89
e 65 95
e 65 97
e 66 78
e 66 96
e 66 99
e 67 79
e 67 96
e 67 97
e 68 73
e 68 80
e 68 92
e 68 93
e 68 94
e 69 73
e 69 78
e 69 88
e 69 89
e 69 97
e 69 99
e 70 75
e 70 76
e 70 83
e 70 97
e 70 100
e 71 75
e 71 76
e 71 88
e 71 94
e 72 73
e 72 74
e 72 84
e 72 86
e 72 87
e 72 90
e 73 74
e 73 80
e 73 97
e 73 100
e 74 79
e 75 81
e 75 84
e 75 91
e 75 99
e 76 83
e 76 85
e 76 92
e 77 79
e 77 84
e 77 97
e 78 80
e 78 90
e 78 92
e 78 97
e 79 83
e 79 85
e 79 96
e 79 99
e 80 86
e 80 90
e 80 95
e 81 82
e 81 94
e 81 95
e 82 88
e 83 87
e 83 89
e 83 97
e 83 98
e 83 100
e 84 93
e 84 96
e 86 89
e 86 90
e 86 99
e 87 90
e 87 91
e 87 92
e 88 93
e 89 99
e 90 94
e 93 96
e 95 100
e 97 99
